c Reshuffling of:
c
c Subset cardinality formula for graph
p cnf 129 526
2 111 -25 0
104 -129 -1 0
47 42 -17 0
126 -123 89 0
36 -81 84 0
125 -62 27 0
122 19 -96 0
-53 -54 108 0
18 -110 -38 0
47 -91 73 0
121 36 -18 0
107 120 41 0
-90 -101 104 0
9 -28 113 0
-126 123 -89 0
-9 42 -17 0
-91 20 69 0
-56 -118 24 0
-100 115 -120 0
-122 -19 93 0
-102 -6 29 0
36 -18 -82 0
-37 -81 84 0
-47 -42 17 0
88 -124 -35 0
-60 -21 129 0
117 -125 -119 0
20 85 69 0
96 -102 29 0
66 -19 60 0
65 -98 80 0
-88 35 -55 0
-103 20 -100 0
-13 -105 23 0
-6 62 -15 0
64 -110 -38 0
127 -33 -74 0
96 -102 -6 0
-109 122 -49 0
91 -85 -69 0
-78 -34 33 0
-25 75 -95 0
69 -31 -3 0
-9 5 -113 0
15 -10 -87 0
59 32 21 0
-21 -87 129 0
-101 43 -127 0
-107 -120 -41 0
43 103 100 0
-40 -61 -51 0
52 -123 45 0
28 64 -26 0
-84 -46 -2 0
101 -117 -43 0
14 -40 -51 0
68 -75 97 0
60 21 87 0
-14 56 92 0
-72 -30 -97 0
86 54 8 0
-106 53 54 0
-18 -64 110 0
14 -66 -92 0
-27 120 41 0
10 87 98 0
-46 48 -2 0
61 -34 10 0
128 -16 65 0
59 -35 21 0
-73 -63 -80 0
-118 -83 24 0
81 52 -71 0
-55 54 8 0
81 -103 52 0
-88 124 -55 0
-66 19 -22 0
40 -128 -119 0
-22 77 -50 0
-117 -43 127 0
-13 77 -105 0
-66 -56 -92 0
94 -65 -80 0
-79 74 116 0
27 -120 -41 0
-41 -74 -116 0
-62 -57 27 0
-91 85 69 0
-11 83 -86 0
-26 95 39 0
-40 -117 125 119 0
79 -41 -116 0
-77 105 -23 0
-16 77 -50 0
-20 -85 -69 0
18 64 -110 0
55 -54 -8 0
-109 -4 72 0
-69 31 3 0
16 76 -65 0
119 -94 -107 0
4 114 106 0
76 -85 -79 0
109 88 49 0
14 -61 -51 0
92 -112 -39 0
24 -57 -67 0
-14 66 56 0
-57 78 -67 0
128 -76 65 0
-69 31 -30 0
-101 117 -127 0
-36 18 82 0
-58 34 -10 0
-17 -71 99 0
-6 105 62 0
-6 105 -15 0
15 -87 -98 0
109 -126 -72 0
-94 65 80 0
107 -27 120 0
48 115 63 0
-96 102 -29 0
89 -32 112 0
-122 88 49 0
-9 28 -113 0
-37 36 84 0
24 78 -67 0
56 118 83 0
25 -75 95 0
22 16 50 0
3 111 -53 0
-121 18 82 0
60 21 -129 0
-11 83 -44 0
9 -5 113 0
23 115 63 0
-112 108 -39 0
125 -57 27 0
-66 -22 -60 0
51 -8 -1 0
57 -78 67 0
40 117 -119 0
-110 -123 89 0
113 -45 31 0
40 -128 -125 0
-126 110 -89 0
-50 78 -33 0
110 123 -89 0
-82 -68 -97 0
-106 54 -108 0
-40 -117 128 125 0
60 87 -129 0
50 -78 33 0
114 -102 59 0
-5 114 106 0
117 -128 -119 0
-126 110 123 0
-38 -3 53 0
100 -115 120 0
61 58 -34 0
79 -74 -116 0
38 3 111 0
114 118 59 0
73 63 -70 0
-128 16 -65 0
-115 120 -68 0
-61 34 -10 0
-86 55 -54 0
31 3 -30 0
-30 -97 -99 0
-93 7 -58 0
-2 -111 25 0
5 -114 -106 0
100 -115 -68 0
-22 -16 -50 0
5 28 -113 0
-63 70 -80 0
40 61 51 0
-12 25 95 0
-79 41 74 0
-125 62 57 0
-101 13 104 0
-59 -32 35 0
-51 -29 1 0
37 -36 81 0
-18 110 38 0
-66 19 -60 0
118 83 -24 0
88 -35 55 0
-38 -3 -111 0
9 -5 -28 0
109 4 -126 0
18 64 -38 0
-43 20 -100 0
-79 41 116 0
109 -122 49 0
92 -112 108 0
-127 33 74 0
117 -128 -125 0
-69 3 -30 0
-64 110 38 0
28 64 11 0
-42 111 -25 0
-71 -116 99 0
63 -70 80 0
19 -22 -60 0
-23 -115 -63 0
93 -44 -7 0
-85 46 -79 0
-128 16 76 0
106 -53 -54 0
-106 53 -108 0
-96 102 6 0
-100 115 68 0
23 48 115 0
-4 5 -114 0
-90 13 104 0
-40 -117 128 119 0
90 -94 37 0
56 118 -24 0
81 -103 -71 0
66 56 92 0
127 -33 -70 0
-81 103 71 0
90 119 -107 0
-103 52 -71 0
127 -74 -70 0
47 -9 -17 0
-28 -11 26 0
76 46 -79 0
-92 112 -108 0
84 46 2 0
-15 10 87 0
-9 5 28 0
-47 121 -73 0
-93 44 -58 0
-24 57 67 0
-47 9 17 0
103 -52 71 0
-17 -71 -116 0
-76 -46 79 0
91 -20 -85 0
-68 75 -97 0
69 -3 30 0
106 -53 108 0
-4 5 -106 0
72 30 99 0
107 -27 41 0
-49 95 39 0
109 4 -72 0
-13 77 23 0
103 -20 100 0
72 97 99 0
-113 -31 124 0
16 -77 50 0
90 -107 37 0
-47 121 91 0
-109 -88 -49 0
-10 -87 -98 0
-92 112 39 0
23 48 63 0
49 26 -39 0
78 34 -33 0
73 63 80 0
42 -2 -111 0
13 -77 -23 0
-94 -98 80 0
92 108 -39 0
-28 -64 -11 0
102 -118 -59 0
126 -110 89 0
91 -20 -69 0
-86 55 -8 0
41 74 116 0
88 -124 55 0
12 -25 -95 0
-45 31 -124 0
-117 128 125 119 0
84 -48 2 0
44 7 -58 0
-52 -45 12 0
-89 -7 -112 0
42 -111 25 0
-109 -4 126 0
-127 33 70 0
-15 87 98 0
64 11 -26 0
-109 126 72 0
-89 32 -112 0
37 -36 -84 0
52 45 -12 0
-22 -16 77 0
-33 -74 -70 0
-104 -67 1 0
121 91 -73 0
101 -13 -104 0
40 117 -125 0
-42 2 -25 0
-3 -111 53 0
62 57 -27 0
-23 -48 -63 0
94 98 -80 0
121 36 -82 0
122 19 -93 0
-16 -76 65 0
-61 -58 34 0
-88 124 35 0
86 -55 54 0
86 -55 8 0
-14 40 61 0
-32 35 -21 0
17 71 -99 0
71 116 -99 0
-76 85 -46 0
126 -110 -123 0
-83 44 86 0
104 67 -129 0
-94 -107 37 0
82 68 97 0
-50 34 -33 0
38 3 -53 0
67 -129 -1 0
-81 -52 71 0
-125 57 -27 0
-81 103 -52 0
-48 -115 -63 0
4 -5 106 0
-122 96 93 0
69 -31 30 0
6 -105 -62 0
-37 36 -81 0
-104 -67 129 0
49 26 -95 0
90 101 -13 0
-114 102 -118 0
4 -5 114 0
89 7 -32 0
-50 78 34 0
22 16 -77 0
43 103 -20 0
50 -34 33 0
38 111 -53 0
-43 -103 20 0
-28 -64 26 0
-29 8 1 0
-12 -75 95 0
-121 -36 18 0
-40 128 125 119 0
122 -88 -49 0
96 -6 29 0
7 -32 112 0
47 -9 42 0
100 120 -68 0
37 81 -84 0
-100 -120 68 0
45 -31 124 0
112 -108 39 0
49 -95 -39 0
125 -62 -57 0
-114 -118 -59 0
19 -96 -93 0
121 -18 -82 0
-90 94 107 -37 0
29 -8 -1 0
85 -46 79 0
-84 48 -2 0
53 54 -108 0
123 -45 12 0
-12 25 -75 0
-94 65 -98 0
83 -44 -86 0
119 -94 37 0
-7 32 -112 0
-114 102 -59 0
101 -43 127 0
-61 -58 -10 0
66 -19 22 0
-56 -83 24 0
-4 126 72 0
119 -107 37 0
-31 -3 30 0
113 31 -124 0
-5 -28 113 0
30 97 99 0
47 -121 73 0
42 -2 25 0
94 -65 98 0
32 -35 21 0
14 -66 -56 0
-96 6 -29 0
-86 -54 -8 0
-36 81 -84 0
43 -20 100 0
-44 -7 58 0
-90 -119 94 107 0
-59 -32 -21 0
90 119 37 0
-122 -19 96 0
13 105 -23 0
6 -62 15 0
-102 118 59 0
89 7 112 0
-90 -101 13 0
6 -105 15 0
-38 -111 53 0
17 71 116 0
-73 70 -80 0
-91 20 85 0
-105 -62 15 0
-18 -64 38 0
93 -7 58 0
-49 -26 39 0
21 87 -129 0
-19 22 60 0
-47 91 -73 0
47 -121 -91 0
-90 -119 107 -37 0
104 67 -1 0
-119 94 107 -37 0
40 117 -128 0
128 -16 -76 0
105 62 -15 0
124 35 -55 0
-52 123 12 0
114 -102 118 0
33 74 70 0
-109 122 -88 0
-11 -44 -86 0
-56 -118 -83 0
-82 75 -97 0
76 -85 46 0
-4 -114 -106 0
113 -45 -124 0
66 22 60 0
-72 -97 -99 0
-107 27 -120 0
-121 -91 73 0
-73 -63 70 0
-72 -30 -99 0
-89 -7 32 0
-14 40 51 0
-43 -103 -100 0
13 -77 105 0
-128 76 -65 0
82 -75 97 0
-24 -78 67 0
4 -126 -72 0
-23 -48 -115 0
17 116 -99 0
-60 -21 -87 0
52 -123 -12 0
101 -117 127 0
90 -13 -104 0
-84 -46 48 0
90 -94 -107 0
115 -120 68 0
11 -83 86 0
72 30 97 0
-90 -119 94 -37 0
46 -48 2 0
51 29 -8 0
-59 35 -21 0
-104 129 1 0
122 -96 -93 0
-65 98 -80 0
12 75 -95 0
84 46 -48 0
-92 -108 39 0
-52 123 -45 0
-123 45 -12 0
-124 -35 55 0
77 -105 23 0
-15 10 98 0
-128 -125 -119 0
11 44 86 0
-101 117 43 0
102 6 -29 0
11 -83 44 0
-17 -116 99 0
28 11 -26 0
-76 85 79 0
-113 45 124 0
40 -125 -119 0
-113 45 -31 0
-127 74 70 0
-121 -36 82 0
79 -41 -74 0
-51 8 1 0
-42 2 111 0
15 -10 -98 0
-47 9 -42 0
-107 27 -41 0
93 -44 58 0
-82 -68 75 0
109 -122 88 0
-24 57 -78 0
-49 -26 95 0
-67 129 1 0
14 -56 -92 0
-14 66 92 0
51 29 -1 0
58 -34 10 0
56 83 -24 0
12 -25 75 0
73 -70 80 0
90 119 -94 0
9 -42 17 0
-60 -87 129 0
-93 44 7 0
61 58 10 0
-125 62 -27 0
106 -54 108 0
117 43 -127 0
-19 96 93 0
14 -40 -61 0
-64 -11 26 0
24 -57 78 0
22 -77 50 0
82 68 -75 0
26 -95 -39 0
50 -78 -34 0
-14 61 51 0
-51 -29 8 0
59 32 -35 0
90 101 -104 0
 -16 37 40 -80 98 0
c 288 povtorov
 -16 37 40 -76 98 0
c 261 povtorov
 37 40 -76 -80 98 0
c 254 povtorov
 -16 37 40 98 -107 0
c 234 povtorov
 -16 37 40 -76 -80 0
c 227 povtorov
 -16 37 98 117 -125 0
c 224 povtorov
 -16 37 40 -80 90 0
c 210 povtorov
 37 40 -76 98 117 0
c 209 povtorov
 37 40 -76 -80 90 0
c 209 povtorov
 -16 37 40 -80 117 0
c 208 povtorov
 -16 37 40 98 117 0
c 208 povtorov
 37 40 -76 -80 -125 0
c 208 povtorov
 40 -76 -80 90 -107 0
c 206 povtorov
 37 40 -76 -80 -107 0
c 206 povtorov
 37 -76 -80 98 -125 0
c 205 povtorov
 37 40 -76 90 98 0
c 204 povtorov
 -16 37 -80 98 -125 0
c 203 povtorov
 37 40 -76 98 -125 0
c 199 povtorov
 37 40 -57 -62 120 0
c 199 povtorov
 37 -76 -80 117 -125 0
c 198 povtorov
 -16 37 40 98 -125 0
c 196 povtorov
 -16 37 40 90 98 0
c 195 povtorov
 -16 37 40 -80 -125 0
c 194 povtorov
 -16 37 -76 98 -125 0
c 194 povtorov
 -16 40 -80 98 -107 0
c 193 povtorov
 -16 37 -80 98 117 0
c 192 povtorov
 -16 37 -80 117 -125 0
c 191 povtorov
 37 -76 98 117 -125 0
c 190 povtorov
 37 40 -76 -80 117 0
c 188 povtorov
 37 40 41 -57 120 0
c 186 povtorov
 37 40 -76 98 -107 0
c 186 povtorov
 -16 37 -76 -80 -125 0
c 185 povtorov
 40 -76 -80 98 -107 0
c 184 povtorov
 -76 -80 90 117 -125 0
c 183 povtorov
 -16 40 -80 90 -107 0
c 183 povtorov
 13 37 40 -43 104 0
c 182 povtorov
 40 -76 90 98 -107 0
c 182 povtorov
 13 37 40 104 127 0
c 181 povtorov
 37 -76 -80 98 117 0
c 181 povtorov
 -16 37 40 -80 -107 0
c 181 povtorov
 37 40 -43 104 127 0
c 181 povtorov
 13 37 40 -43 127 0
c 180 povtorov
 -76 -80 90 -107 117 0
c 180 povtorov
 -16 40 -76 -80 90 0
c 177 povtorov
 -16 -80 90 -107 117 0
c 176 povtorov
 -16 37 -76 -80 117 0
c 176 povtorov
 -16 40 -76 98 -107 0
c 176 povtorov
 -76 -80 90 -107 -125 0
c 176 povtorov
 -16 37 -76 98 117 0
c 176 povtorov
 -16 -76 -80 90 117 0
c 175 povtorov
 -16 40 90 98 -107 0
c 175 povtorov
 -16 98 -107 117 -125 0
c 174 povtorov
 -76 -80 -107 117 -125 0
c 173 povtorov
 -16 37 98 -107 -125 0
c 173 povtorov
 -16 40 -76 -80 -107 0
c 173 povtorov
 37 -76 -80 90 117 0
c 171 povtorov
 -76 90 98 117 -125 0
c 171 povtorov
 -76 90 98 -107 117 0
c 170 povtorov
 -16 40 -80 90 98 0
c 169 povtorov
 37 40 -57 -94 120 0
c 169 povtorov
 -16 -80 90 98 117 0
c 169 povtorov
 -16 -76 90 98 117 0
c 168 povtorov
 37 40 -57 90 120 0
c 168 povtorov
 40 -76 -80 90 98 0
c 168 povtorov
 -16 90 98 -107 117 0
c 167 povtorov
 37 40 -57 117 120 0
c 167 povtorov
 37 -76 -80 -107 -125 0
c 167 povtorov
 -76 90 98 -107 -125 0
c 166 povtorov
 40 -76 90 98 117 0
c 166 povtorov
 -16 37 98 -107 117 0
c 166 povtorov
 37 40 41 -57 -62 0
c 166 povtorov
 40 -76 -80 90 117 0
c 165 povtorov
 -16 90 98 -107 -125 0
c 164 povtorov
 -16 37 90 98 117 0
c 164 povtorov
 -16 -76 98 -107 -125 0
c 163 povtorov
 -76 98 -107 117 -125 0
c 163 povtorov
 37 -76 98 -107 -125 0
c 163 povtorov
 -16 90 98 117 -125 0
c 162 povtorov
 13 37 40 -43 -94 0
c 162 povtorov
 37 -76 -80 90 -125 0
c 161 povtorov
 -16 -80 90 -107 -125 0
c 160 povtorov
 37 40 -62 117 120 0
c 160 povtorov
 -16 -76 -80 -107 -125 0
c 160 povtorov
 -16 40 -76 90 98 0
c 159 povtorov
 37 40 41 -62 120 0
c 159 povtorov
 -76 -80 90 98 117 0
c 159 povtorov
 -16 -80 98 -107 -125 0
c 158 povtorov
 37 -76 -80 -107 117 0
c 158 povtorov
 -16 37 -80 90 117 0
c 157 povtorov
 -16 37 90 98 -125 0
c 155 povtorov
 37 40 -57 120 -128 0
c 155 povtorov
 -16 -80 -107 117 -125 0
c 155 povtorov
 37 -76 90 98 -125 0
c 153 povtorov
 13 37 40 -43 -128 0
c 153 povtorov
 40 -76 -80 -107 117 0
c 151 povtorov
 -16 40 90 98 117 0
c 149 povtorov
 40 -76 98 -107 117 0
c 149 povtorov
 40 -76 -80 90 -125 0
c 147 povtorov
 -16 40 -80 -107 117 0
c 146 povtorov
 37 40 41 -57 -94 0
c 146 povtorov
 -76 -80 98 -107 -125 0
c 146 povtorov
 37 40 41 -57 117 0
c 146 povtorov
 -16 37 -80 -107 -125 0
c 145 povtorov
 37 -76 98 -107 117 0
c 145 povtorov
 40 -76 -80 -107 -125 0
c 145 povtorov
 37 40 -43 104 -125 0
c 145 povtorov
 13 37 40 -43 -125 0
c 144 povtorov
 -16 37 -80 90 -125 0
c 144 povtorov
 -16 -80 90 117 -125 0
c 143 povtorov
 -16 40 -80 90 117 0
c 142 povtorov
 -16 -76 -80 -107 117 0
c 142 povtorov
 37 -76 90 98 117 0
c 142 povtorov
 37 40 -43 104 -107 0
c 141 povtorov
 37 40 41 -57 90 0
c 141 povtorov
 37 40 -43 104 -128 0
c 140 povtorov
 13 37 40 -94 127 0
c 140 povtorov
 13 37 -43 127 -128 0
c 139 povtorov
 13 40 -43 104 -107 0
c 139 povtorov
 37 40 104 -107 127 0
c 139 povtorov
 -16 40 98 -107 117 0
c 139 povtorov
 37 40 -62 120 -128 0
c 139 povtorov
 37 -43 104 -125 -128 0
c 137 povtorov
 13 37 40 -43 -107 0
c 137 povtorov
 13 37 -43 -125 -128 0
c 137 povtorov
 13 37 40 -107 127 0
c 136 povtorov
 -16 -76 -80 90 -125 0
c 135 povtorov
 13 40 104 -107 127 0
c 134 povtorov
 37 40 41 -57 -128 0
c 134 povtorov
 40 -76 98 -107 -125 0
c 134 povtorov
 37 40 -94 104 127 0
c 134 povtorov
 -16 40 98 -107 -125 0
c 133 povtorov
 37 40 -43 -94 104 0
c 133 povtorov
 37 40 -62 -94 120 0
c 132 povtorov
 -16 40 90 98 -125 0
c 132 povtorov
 40 -57 90 -94 120 0
c 132 povtorov
 37 40 -62 90 120 0
c 131 povtorov
 13 37 -125 127 -128 0
c 130 povtorov
 37 40 104 127 -128 0
c 129 povtorov
 -76 -80 98 -107 117 0
c 129 povtorov
 13 40 -43 -94 -107 0
c 128 povtorov
 13 40 -43 -107 127 0
c 128 povtorov
 37 104 -125 127 -128 0
c 128 povtorov
 -16 37 -80 -107 117 0
c 127 povtorov
 13 37 40 -125 127 0
c 127 povtorov
 -16 -80 90 98 -125 0
c 127 povtorov
 -76 -80 90 98 -125 0
c 127 povtorov
 13 37 -43 -107 -125 0
c 127 povtorov
 40 -57 90 117 120 0
c 127 povtorov
 37 -43 104 127 -128 0
c 126 povtorov
 37 -57 117 120 -128 0
c 125 povtorov
 13 37 40 127 -128 0
c 124 povtorov
 40 41 -57 90 -94 0
c 123 povtorov
 40 -94 104 -107 127 0
c 123 povtorov
 13 37 -43 -125 127 0
c 122 povtorov
 40 -43 104 -107 127 0
c 122 povtorov
 37 40 41 -62 117 0
c 122 povtorov
 -16 40 -80 90 -125 0
c 122 povtorov
 13 104 -107 -125 127 0
c 121 povtorov
 13 40 -94 -107 127 0
c 121 povtorov
 13 37 104 127 -128 0
c 120 povtorov
 13 -43 -107 -125 127 0
c 120 povtorov
 37 -57 90 117 120 0
c 120 povtorov
 13 -43 -94 -107 -125 0
c 120 povtorov
 37 -62 117 120 -128 0
c 120 povtorov
 37 40 41 -62 -94 0
c 120 povtorov
 13 37 -43 -94 -128 0
c 119 povtorov
 37 40 41 -62 90 0
c 119 povtorov
 13 37 -43 104 -125 0
c 118 povtorov
 37 41 -57 117 120 0
c 117 povtorov
 40 -43 -94 104 -107 0
c 117 povtorov
 13 37 104 -125 127 0
c 116 povtorov
 37 41 -57 117 -128 0
c 116 povtorov
 -43 104 -107 -125 127 0
c 115 povtorov
 40 -76 90 98 -125 0
c 114 povtorov
 -16 -76 98 -107 117 0
c 114 povtorov
 -16 -80 98 -107 117 0
c 114 povtorov
 37 -43 104 -125 127 0
c 114 povtorov
 37 -57 -62 117 120 0
c 113 povtorov
 37 40 41 -62 -128 0
c 113 povtorov
 13 -43 -107 -125 -128 0
c 113 povtorov
 -16 -76 90 98 -125 0
c 113 povtorov
 37 -43 104 -107 -125 0
c 112 povtorov
 -16 40 -80 -107 -125 0
c 112 povtorov
 40 41 -57 90 120 0
c 111 povtorov
 40 -62 90 -94 120 0
c 110 povtorov
 37 40 104 -125 127 0
c 110 povtorov
 13 -107 -125 127 -128 0
c 110 povtorov
 13 37 -43 104 -128 0
c 110 povtorov
 -43 104 -107 -125 -128 0
c 109 povtorov
 13 -43 104 -107 -125 0
c 109 povtorov
 40 41 -57 90 117 0
c 108 povtorov
 37 41 -57 -62 117 0
c 108 povtorov
 -43 -94 104 -107 -125 0
c 108 povtorov
 13 -43 -94 -107 -128 0
c 108 povtorov
 13 40 -43 -94 104 0
c 108 povtorov
 13 -43 -94 127 -128 0
c 107 povtorov
 40 -57 -62 90 120 0
c 106 povtorov
 40 104 -107 127 -128 0
c 106 povtorov
 37 -43 -94 104 -128 0
c 106 povtorov
 40 41 -62 90 -94 0
c 106 povtorov
 13 -94 -107 127 -128 0
c 106 povtorov
 40 41 -57 -94 120 0
c 105 povtorov
 37 -43 -94 104 -125 0
c 105 povtorov
 -94 104 -107 -125 127 0
c 104 povtorov
 13 37 -43 -107 -128 0
c 104 povtorov
 40 41 -57 -62 90 0
c 104 povtorov
 -57 90 117 120 -128 0
c 103 povtorov
 13 -94 -125 127 -128 0
c 103 povtorov
 13 40 -94 104 127 0
c 103 povtorov
 40 -57 90 120 -128 0
c 103 povtorov
 37 -57 -94 117 120 0
c 102 povtorov
 40 -43 -94 104 127 0
c 102 povtorov
 -57 -62 90 117 120 0
c 102 povtorov
 40 -62 90 117 120 0
c 101 povtorov
 13 37 -43 -94 -125 0
c 101 povtorov
 13 40 -107 -125 127 0
c 101 povtorov
 40 -57 -62 -94 120 0
c 101 povtorov
 13 40 -43 -94 127 0
c 100 povtorov
 13 -94 -107 -125 127 0
c 100 povtorov
 13 40 -107 127 -128 0
c 100 povtorov
 -43 -94 104 -125 -128 0
c 100 povtorov
 -43 -94 104 127 -128 0
c 100 povtorov
 40 -43 104 -107 -125 0
c 99 povtorov
 37 104 -107 -125 127 0
c 99 povtorov
 40 -43 104 -107 -128 0
c 99 povtorov
 40 41 -57 -62 -94 0
c 98 povtorov
 104 -107 -125 127 -128 0
c 98 povtorov
 40 41 -62 90 120 0
c 98 povtorov
 -43 -94 104 -107 -128 0
c 98 povtorov
 -94 104 -107 127 -128 0
c 98 povtorov
 37 -57 90 120 -128 0
c 98 povtorov
 13 40 -43 -94 -128 0
c 97 povtorov
 40 -57 -94 120 -128 0
c 97 povtorov
 41 -57 90 -94 -128 0
c 97 povtorov
 -57 90 -94 120 -128 0
c 96 povtorov
 37 41 -57 90 117 0
c 96 povtorov
 13 -94 104 127 -128 0
c 96 povtorov
 13 -43 -94 104 -128 0
c 95 povtorov
 13 40 -43 -107 -125 0
c 95 povtorov
 40 -43 -94 104 -128 0
c 95 povtorov
 -62 90 117 120 -128 0
c 94 povtorov
 40 -94 104 -125 127 0
c 94 povtorov
 13 -43 -107 127 -128 0
c 94 povtorov
 37 -94 104 127 -128 0
c 94 povtorov
 37 41 -62 117 -128 0
c 94 povtorov
 37 41 -57 120 -128 0
c 94 povtorov
 40 104 -107 -125 127 0
c 94 povtorov
 37 -62 -94 117 120 0
c 94 povtorov
 37 41 -57 -62 -128 0
c 94 povtorov
 40 41 -62 -94 120 0
c 93 povtorov
 41 -57 90 117 -128 0
c 93 povtorov
 37 -57 -62 120 -128 0
c 93 povtorov
 13 -43 -94 -125 -128 0
c 93 povtorov
 37 104 -107 127 -128 0
c 91 povtorov
 37 -94 104 -125 127 0
c 91 povtorov
 37 -62 90 117 120 0
c 91 povtorov
 13 37 -107 -125 127 0
c 91 povtorov
 13 40 -43 -107 -128 0
c 91 povtorov
 -57 90 -94 117 120 0
c 90 povtorov
 37 -43 104 -107 -128 0
c 90 povtorov
 13 37 -107 127 -128 0
c 89 povtorov
 40 41 -57 -94 -128 0
c 89 povtorov
 41 -57 90 117 120 0
c 89 povtorov
 13 104 -107 127 -128 0
c 89 povtorov
 40 41 -62 90 117 0
c 89 povtorov
 37 41 -62 120 -128 0
c 89 povtorov
 37 40 -57 -76 -80 120 0
c 88 povtorov
 41 -62 -94 120 -128 0
c 87 povtorov
 -62 90 -94 120 -128 0
c 86 povtorov
 13 37 -94 127 -128 0
c 86 povtorov
 13 40 -43 -94 -125 0
c 85 povtorov
 37 -57 -94 120 -128 0
c 85 povtorov
 13 40 -94 127 -128 0
c 85 povtorov
 -94 104 -125 127 -128 0
c 85 povtorov
 40 -57 -94 117 120 0
c 84 povtorov
 -57 -94 117 120 -128 0
c 84 povtorov
 41 -57 -94 120 -128 0
c 84 povtorov
 40 41 -57 90 -128 0
c 84 povtorov
 37 -62 90 120 -128 0
c 83 povtorov
 13 -43 -94 -125 127 0
c 83 povtorov
 13 37 -94 -125 127 0
c 83 povtorov
 40 41 -62 -94 117 0
c 83 povtorov
 37 40 41 -57 -76 -80 0
c 82 povtorov
 41 -62 90 117 120 0
c 82 povtorov
 41 -57 -94 117 -128 0
c 81 povtorov
 13 40 -94 -125 127 0
c 80 povtorov
 40 -62 90 120 -128 0
c 80 povtorov
 -57 -62 -94 120 -128 0
c 80 povtorov
 40 41 -57 -94 117 0
c 79 povtorov
 -62 -94 117 120 -128 0
c 79 povtorov
 41 -62 90 -94 -128 0
c 79 povtorov
 37 41 -62 117 120 0
c 79 povtorov
 41 -57 90 -94 117 0
c 78 povtorov
 40 -43 -94 104 -125 0
c 78 povtorov
 37 -62 -94 120 -128 0
c 77 povtorov
 40 -62 -94 117 120 0
c 77 povtorov
 40 -94 104 127 -128 0
c 75 povtorov
 40 41 -62 90 -128 0
c 75 povtorov
 13 -94 104 -125 127 0
c 75 povtorov
 -43 104 -107 127 -128 0
c 75 povtorov
 37 41 -62 -94 -128 0
c 75 povtorov
 41 -57 -62 -94 -128 0
c 74 povtorov
 37 41 -62 90 117 0
c 73 povtorov
 37 40 -43 -76 -80 104 0
c 73 povtorov
 37 41 -57 -94 117 0
c 73 povtorov
 -62 90 -94 117 120 0
c 73 povtorov
 37 41 -57 -94 -128 0
c 73 povtorov
 37 41 -62 -94 117 0
c 72 povtorov
